10
10
231589
0
0
69 67 71 72 71 70 74 69 69 72
1
0
55 51 56 53 54 49 58 54 53 50
2
0
54 51 54 56 52 53 55 56 54 51
3
0
49 49 49 49 45 45 47 48 46 48
4
0
43 43 43 41 41 46 38 40 43 42
5
0
40 37 39 41 38 39 42 42 38 37
6
0
52 47 50 49 47 47 50 50 46 48
7
0
44 41 44 45 43 49 41 42 41 43
8
0
42 40 44 39 38 41 37 40 43 41
9
0
41 48 44 45 44 42 43 45 47 47
